N = 34;
MinK = 5;
Capacity = 100;

X = array1d(0..34, [78, 93, 57, 2, 10, 31, 10, 97, 16, 98, 103, 38, 100, 60, 15, 39, 102, 103, 10, 39, 97, 18, 32, 96, 11, 15, 10, 13, 0, 103, 33, 13, 63, 3, 14]);
Y = array1d(0..34, [95, 43, 4, 80, 17, 8, 87, 50, 93, 48, 47, 9, 51, 11, 19, 15, 47, 59, 82, 9, 52, 97, 13, 45, 21, 96, 81, 24, 8, 59, 11, 94, 5, 87, 25]);

Demands = [12, 3, 2, 13, 17, 12, 1, 26, 13, 15, 20, 20, 3, 3, 12, 25, 2, 15, 24, 2, 7, 15, 2, 13, 9, 12, 26, 17, 26, 9, 14, 9, 25, 13];
